#Structural optimization (Need to do this over ecut also as separate scripts)
#Look at the convergence paper and do similar paper

#I should probably write all my scripts like this with convergence over kpt...
ndtset 6    jdtset 1 2 3 4 5 6

ngkpt1  6  6  6
ngkpt2  8  8  8
ngkpt3 10 10 10
ngkpt4 12 12 12
ngkpt5 14 14 14
ngkpt6 16 16 16


#Definition of the unit cell
#**********************************
   acell   3*12.00 # Experimental 12.24 Bohr at 300 K
   rprim 0.0 0.5 0.5
         0.5 0.0 0.5
         0.5 0.5 0.0

#Definition of the atoms
#*********************
   natom 2
   ntypat 2
   znucl 49 51
   typat 1 2
   xred  0    0    0
         0.25 0.25 0.25

#Definition of the scf procedure
#******************************
   nstep  100

#Definition of the plane wave basis
#************************************
   ecut  25 #Do for [10,15,20,25,30]
   ecutsm 0.5
   dilatmx 1.05

   nshiftk   4
   shiftk   0.5 0.5 0.5
            0.5 0.0 0.0
            0.0 0.5 0.0
            0.0 0.0 0.5

#Structural relaxation
#*********************
   ionmov 22
   optcell 1 #Do not use optcell 2, changes the rprim values...
   tolvrs 1.0d-15
   tolmxf 5.0d-6
   ntime 100

pp_dirpath "$ABI_PSPDIR_InSb"   # Environment variable for pseudodir
pseudos "49in.3.hgh, 51sb.5.hgh"