# Linear and nonlinear response calculation for InSb
# Perturbations: electric fields & atomic displacements
# (M. Veithen, 21.4.2005)

#Definition of lattice parameters
#********************************
    acell 3*11.993541055 # ngkpt 6x6x6

   rprim       0.0 0.5 0.5
               0.5 0.0 0.5
               0.5 0.5 0.0

#Definition of atomic positions and types
#*************************************
   natom       2
   ntypat      2
   znucl       49 51
   typat       1 2
   xred        0    0    0
               0.25 0.25 0.25
    ixc        3 # cannot use the the spin-polarized ixc 1
                 # with optdriver 5

#Parameters of the SCF cycles
#****************************
   nstep       100


#Plane wave basis and k-point grid
#*********************************
   ecut        25
   ecutsm      0.5
   dilatmx     1.05
   ngkpt      6 6 6 
   nshiftk     4
   shiftk      0.5 0.5 0.5
               0.5 0.0 0.0
               0.0 0.5 0.0
               0.0 0.0 0.5

ndtset 5     jdtset 1 2 3 4 5

#DATASET1 : scf calculation: GS WF in the IBZ
#********************************************
   prtden1    1
   kptopt1    1
   toldfe1    1.0d-12

#DATASET2 : non scf calculation: GS WF in the whole BZ
#*****************************************************
   getden2    1
   kptopt2    2
     iscf2   -2
   getwfk2    1
   tolwfr2    1.0d-22
    nband2    4


#DATASET3 : ddk on the MP grid of k-points
#*****************************************
   getwfk3    2
    rfdir3    1 1 1
   rfelfd3    2
   tolwfr3    1.0d-22
    nband3    4
   kptopt3    2

#DATASET4 : ddE on the MP grid of k-points
#*****************************************
   prtden4    1
   getwfk4    2
   getddk4    3
    rfdir4    1 1 1
   rfphon4    1
  rfatpol4    1 2
   tolvrs4    1.0d-12
   rfelfd4    3 
#Can put here dfpt_sciss (0.17 - theor_gap) eV
    nband4    4
   kptopt4    2
  prepanl4    1

#DATASET5 : 3DTE calculation
#***************************
   getden5    1
  get1den5    4
   getwfk5    2
   get1wf5    4
    nband5    4
   kptopt5    2
optdriver5    5     #Need to use different xc than 1, ixc 3 is the same without spin-polarizaiton
  d3e_pert1_elfd5    1
  d3e_pert1_phon5    1
 d3e_pert1_atpol5    1 2
   d3e_pert1_dir5    1 1 1
  d3e_pert2_elfd5    1
   d3e_pert2_dir5    1 1 1
  d3e_pert3_elfd5    1
   d3e_pert3_dir5    1 1 1

nbdbuf 0

pp_dirpath "$ABI_PSPDIR_InSb"   # Environment variable for pseudodir
pseudos "49in.3.hgh, 51sb.5.hgh"